JOBS = 1..3;
MACHINES = 1..4;
SPEED = 2;
time = array3d(JOBS,MACHINES,1..SPEED,[143,25,227,40,180,32,224,40,101,18,195,35,106,19,193,34,103,18,114,20,106,19,242,43]);
energy = array3d(JOBS,MACHINES,1..SPEED,[23,77,10,67,16,72,10,67,36,83,14,70,34,82,14,71,35,83,31,81,34,82,8,65]);
precedence = array2d(JOBS,MACHINES,[0,1,2,3,0,1,3,2,1,0,2,3]);
ME = 1;
TE = 138;
st_old = array2d(JOBS,MACHINES,[18,167,207,246,0,18,246,53,167,53,270,289]);
SpeedScaling = array2d(JOBS,MACHINES,[1,2,2,2,2,2,2,1,1,1,2,2]);
